 $CONTRL EXETYP=RUN $END
 $CONTRL SCFTYP=RHF DFTTYP=B97D RUNTYP=OPTIMIZE MAXIT=200 ICHARG=0
         D5=.T. INTTYP=HONDO ICUT=11 ITOL=30 $END
 $SYSTEM TIMLIM=3600 MWORDS=40 $END
 $SCF    DIRSCF=.T. NCONV=7 $END
 $BASIS  EXTFIL=.T. GBASIS=TZVP $END
 $DFTD   VERSN=4 $END
 $SMP    HTTFIX=.F. CALL64=.T. $END
 $P2P    P2P=.T. XDLB=.T. $END
 $STATPT OPTTOL=0.0001 NSTEP=100 $END
 $DATA 
F- in Q2.H(1,0)+ DFT-D4/def2TZVP & spherical basis functions. C1 geom opt
C1
 C           6.0   1.2589519949  -1.6553490214  -0.0497179807
 C           6.0  -1.2789481881   1.5988309819   0.0050528936
 C           6.0  -0.3049055802  -2.0662403791  -0.0654593217
 C           6.0   0.2855074840   2.0134157942   0.0369710488
 N           7.0  -0.8217501563  -1.5882579812  -1.3667896110
 N           7.0   0.7715980808   1.5407054991   1.3967983369
 N           7.0  -0.8245489650  -1.6579997725   1.2791917455
 N           7.0   0.8271886102   1.6031113398  -1.2691720593
 N           7.0   1.5015250258  -0.9798831818  -1.3434571281
 N           7.0  -1.5116028482   0.9255525746   1.3347290532
 N           7.0   1.4858562153  -1.0504509807   1.3017273922
 N           7.0  -1.5000688050   0.9872253926  -1.3108814020
 C           6.0   0.3570152111  -1.3200180137  -2.1661535422
 C           6.0  -0.3990422475   1.2388136930   2.0472986766
 C           6.0   0.3323563942  -1.3982602025   2.0917770988
 C           6.0  -0.3460613070   1.3785453591  -2.0991562981
 O           8.0   0.3705686997  -1.3271867230  -3.3672864398
 O           8.0  -0.5029933831   1.2337446900   3.3604665227
 O           8.0   0.3205612545  -1.3683065699   3.2985259128
 O           8.0  -0.3462059617   1.4632598842  -3.2955280281
 C           6.0  -1.8160087558  -0.4750439805  -1.5691876072
 C           6.0   1.8465371317   0.3345294447   1.5705051706
 C           6.0  -1.8482248775  -0.6536083624   1.5337161157
 C           6.0   1.8237512397   0.4805046557  -1.5220093603
 H           1.0  -0.4084233354  -3.1594938353  -0.0833352615
 H           1.0   0.3951166085   3.1054023913   0.0945395699
 H           1.0   1.8871881551  -2.5564571243  -0.0586533033
 H           1.0  -1.9164140654   2.4935176115   0.0501356837
 H           1.0  -2.7226853084  -0.7204104543  -1.0220157471
 H           1.0   2.6778339534   0.6469960207   0.9508245491
 H           1.0  -2.7167622181  -0.8210514156   0.9084482895
 H           1.0   2.7264886899   0.7018871169  -0.9582846003
 H           1.0  -2.0313501008  -0.5030873280  -2.6375137992
 H           1.0   2.1240040260   0.3956474344   2.6228557732
 H           1.0  -2.1100124301  -0.7039520963   2.5880979694
 H           1.0   2.0429017966   0.5761602513  -2.5858194659
 H           1.0   0.3727791344   1.3139238508   3.7750370042
 F           9.0  -0.1006000000  -0.0039770000   0.9570000000
 $END
