 $CONTRL EXETYP=RUN $END
 $CONTRL SCFTYP=RHF DFTTYP=B97D RUNTYP=OPTIMIZE MAXIT=200 ICHARG=0
         D5=.T. INTTYP=HONDO ICUT=11 ITOL=30 $END
 $SYSTEM TIMLIM=3600 MWORDS=40 $END
 $SCF    DIRSCF=.T. NCONV=7 $END
 $BASIS  EXTFIL=.T. GBASIS=TZVP $END
 $DFTD   VERSN=4 $END
 $SMP    HTTFIX=.F. CALL64=.T. $END
 $P2P    P2P=.T. XDLB=.T. $END
 $STATPT OPTTOL=0.0001 NSTEP=100 $END
 $DATA 
He in Q2 DFT-D4/def2TZVP & spherical basis functions. C2h geom opt
CNH 2

 C           6.0  -1.2600018981   1.6130993596   0.0000000000
 C           6.0   0.2988328271   2.0244294118   0.0000000000
 N           7.0   0.8212390352   1.5992415909  -1.3286813005
 N           7.0  -1.5035326351   0.9853156404  -1.3293547786
 C           6.0  -0.3569133420   1.3520965611  -2.1284332715
 O           8.0  -0.3736089041   1.4158873836  -3.3357163013
 C           6.0   1.8162166022   0.4799189042  -1.5494885634
 H           1.0   0.3927335580   3.1239125741   0.0000000000
 H           1.0  -1.8846437029   2.5227236221   0.0000000000
 H           1.0   2.7088566317   0.7152409914  -0.9748175264
 H           1.0   2.0515193636   0.5421632528  -2.6131765525
 HE          2.0   0.0000000000   0.0000000000   0.0000000000
 $END
