 $CONTRL EXETYP=RUN $END
 $CONTRL SCFTYP=RHF DFTTYP=B97D RUNTYP=OPTIMIZE MAXIT=200 ICHARG=+2
         D5=.T. INTTYP=HONDO ICUT=11 ITOL=30 $END
 $SYSTEM TIMLIM=3600 MWORDS=40 $END
 $SCF    DIRSCF=.T. NCONV=7 $END
 $BASIS  EXTFIL=.T. GBASIS=TZVP $END
 $DFTD   VERSN=4 $END
 $SMP    HTTFIX=.F. CALL64=.T. $END
 $P2P    P2P=.T. XDLB=.T. $END
 $STATPT OPTTOL=0.0001 NSTEP=100 $END
 $DATA 
Q2.H(1,1)2+ DFT-D4/def2TZVP & spherical basis functions. C1 geom opt
C1
 C           6.0   1.2472563123  -1.5972326444  -0.0564082077
 C           6.0  -1.2644160310   1.5122786547   0.0167491417
 C           6.0  -0.3283902675  -2.0143862796  -0.0724783952
 C           6.0   0.3198103735   1.9389714147   0.0450648883
 N           7.0  -0.8134850540  -1.5003806348  -1.3333018498
 N           7.0   0.7871522620   1.4439143304   1.3617786947
 N           7.0  -0.8218023539  -1.5742651440   1.2327237248
 N           7.0   0.8220219948   1.4921906846  -1.2205462387
 N           7.0   1.4525645520  -0.9176925571  -1.3133315972
 N           7.0  -1.4410677075   0.8147413817   1.3014511009
 N           7.0   1.4227782006  -0.9583087587   1.2454911357
 N           7.0  -1.4526086337   0.9049377426  -1.2646546568
 C           6.0   0.3423105110  -1.2723163830  -2.1629954381
 C           6.0  -0.3694800279   1.1734434893   2.0520767610
 C           6.0   0.3160062161  -1.3378716246   2.0604271603
 C           6.0  -0.3328650585   1.3232372590  -2.0783975201
 O           8.0   0.3605479794  -1.3003420983  -3.3567910667
 O           8.0  -0.5092615872   1.2452504900   3.3440683508
 O           8.0   0.3110186660  -1.3170798195   3.2639263114
 O           8.0  -0.3405175724   1.4463308197  -3.2636474954
 C           6.0  -1.8524059697  -0.4915443422  -1.5642691356
 C           6.0   1.8720437164   0.3779637516   1.5533440001
 C           6.0  -1.8844702274  -0.6366711710   1.5198346167
 C           6.0   1.8622195053   0.4766312630  -1.5144811272
 H           1.0  -0.4113398603  -3.1041943763  -0.0914624808
 H           1.0   0.3961031019   3.0275164867   0.1026731988
 H           1.0   1.8581164373  -2.5040239620  -0.0502683397
 H           1.0  -1.8771683025   2.4151559454   0.0858900710
 H           1.0  -2.7687550210  -0.7436676569  -1.0368838894
 H           1.0   2.7311388517   0.6756433217   0.9628365091
 H           1.0  -2.7700521013  -0.8139990099   0.9198896915
 H           1.0   2.7761531432   0.6985744963  -0.9697780876
 H           1.0  -2.0628998509  -0.5093578434  -2.6349960196
 H           1.0   2.1531262087   0.4070651143   2.6072292978
 H           1.0  -2.1411416194  -0.7124500299   2.5761391855
 H           1.0   2.0735729491   0.5815900441  -2.5799811385
 H           1.0   0.3381862648   1.3503476461   3.8130788439
 H           1.0  -0.3381862648  -1.3503476461  -3.8130788439
 $END
