 $CONTRL EXETYP=RUN $END
 $CONTRL SCFTYP=RHF DFTTYP=B97D RUNTYP=OPTIMIZE MAXIT=200 ICHARG=0
         D5=.T. INTTYP=HONDO ICUT=11 ITOL=30 $END
 $SYSTEM TIMLIM=3600 MWORDS=40 $END
 $SCF    DIRSCF=.T. NCONV=7 $END
 $BASIS  EXTFIL=.T. GBASIS=TZVP $END
 $DFTD   VERSN=4 $END
 $SMP    HTTFIX=.F. CALL64=.T. $END
 $P2P    P2P=.T. XDLB=.T. $END
 $STATPT OPTTOL=0.0001 NSTEP=100 $END
 $DATA 
Q2 DFT-D4/def2TZVP & spherical basis functions. C1 geom opt
C1
 C           6.0   1.2610214281  -1.5600011927   0.0000000000
 C           6.0  -1.2610214281   1.5600011927   0.0000000000
 C           6.0  -0.3161847846  -1.9546973233   0.0000000000
 C           6.0   0.3161847846   1.9546973233   0.0000000000
 N           7.0  -0.7992607574  -1.4816171568  -1.2813201361
 N           7.0   0.7992607574   1.4816171568   1.2813201361
 N           7.0  -0.7992607574  -1.4816171568   1.2813201361
 N           7.0   0.7992607574   1.4816171568  -1.2813201361
 N           7.0   1.4725363068  -0.9209641737  -1.2881137139
 N           7.0  -1.4725363068   0.9209641737   1.2881137139
 N           7.0   1.4725363068  -0.9209641737   1.2881137139
 N           7.0  -1.4725363068   0.9209641737  -1.2881137139
 C           6.0   0.3518096216  -1.2934712407  -2.1127212432
 C           6.0  -0.3518096216   1.2934712407   2.1127212432
 C           6.0   0.3518096216  -1.2934712407   2.1127212432
 C           6.0  -0.3518096216   1.2934712407  -2.1127212432
 O           8.0   0.3701448431  -1.3787998809  -3.3103153773
 O           8.0  -0.3701448431   1.3787998809   3.3103153773
 O           8.0   0.3701448431  -1.3787998809   3.3103153773
 O           8.0  -0.3701448431   1.3787998809  -3.3103153773
 C           6.0  -1.8506331914  -0.4824560530  -1.5342650657
 C           6.0   1.8506331914   0.4824560530   1.5342650657
 C           6.0  -1.8506331914  -0.4824560530   1.5342650657
 C           6.0   1.8506331914   0.4824560530  -1.5342650657
 H           1.0  -0.4042428272  -3.0466779966   0.0000000000
 H           1.0   0.4042428272   3.0466779966   0.0000000000
 H           1.0   1.8504608656  -2.4825755961   0.0000000000
 H           1.0  -1.8504608656   2.4825755961   0.0000000000
 H           1.0  -2.7491887741  -0.7336619282  -0.9769302617
 H           1.0   2.7491887741   0.7336619282   0.9769302617
 H           1.0  -2.7491887741  -0.7336619282   0.9769302617
 H           1.0   2.7491887741   0.7336619282  -0.9769302617
 H           1.0  -2.0754110845  -0.5462567523  -2.6004130225
 H           1.0   2.0754110845   0.5462567523   2.6004130225
 H           1.0  -2.0754110845  -0.5462567523   2.6004130225
 H           1.0   2.0754110845   0.5462567523  -2.6004130225 
 $END
