 $CONTRL EXETYP=RUN $END
 $CONTRL SCFTYP=RHF DFTTYP=B97D RUNTYP=OPTIMIZE MAXIT=200 ICHARG=0
         D5=.T. INTTYP=HONDO ICUT=11 ITOL=30 $END
 $SYSTEM TIMLIM=3600 MWORDS=40 $END
 $SCF    DIRSCF=.T. NCONV=7 $END
 $BASIS  EXTFIL=.T. GBASIS=TZVP $END
 $DFTD   VERSN=4 $END
 $SMP    HTTFIX=.F. CALL64=.T. $END
 $P2P    P2P=.T. XDLB=.T. $END
 $STATPT OPTTOL=0.0001 NSTEP=100 $END
 $DATA 
Q2 DFT-D4/def2TZVP & spherical basis functions. C2h geom opt
CNH 2

C     6.0    -1.35792     2.09406     0.00000
C     6.0     0.13453     2.52855     0.00000
N     7.0     0.70025     1.76259    -1.01153
N     7.0    -1.47345     1.20934    -1.01219
C     6.0    -0.25050     0.96529    -1.70365
O     8.0    -0.19480     0.85898    -2.94196
C     6.0     1.52077     0.39671    -1.46570
H     1.0     0.40835     3.49728     0.00000
H     1.0    -2.08226     2.81140     0.00000
H     1.0     2.60864     0.68077    -1.27748
H     1.0     1.76316     0.51635    -2.59888
 $END
